Geographic Exponential Decay
40 136 80 272 7 31 238 38 45 57 24 2 84 185 315 81 196 191 255 88 18 59 67 70 83 264 203 208 107 244 299 14 284 283 250 29 105 302 220 15 43
p edge 320 1231
e 0 205 14.0
e 0 159 13.0
e 0 102 12.0
e 0 160 1.0
e 0 254 3.0
e 0 59 74.0
e 0 277 4.0
e 1 74 3.0
e 2 99 59.0
e 2 246 69.0
e 2 135 34.0
e 2 242 15.0
e 2 310 64.0
e 2 81 83.0
e 2 97 99.0
e 2 292 1.0
e 2 284 94.0
e 2 102 74.0
e 2 113 100.0
e 2 290 23.0
e 2 245 27.0
e 2 103 49.0
e 2 16 37.0
e 2 46 58.0
e 2 58 41.0
e 2 54 68.0
e 2 39 66.0
e 2 283 68.0
e 2 222 77.0
e 2 247 98.0
e 2 31 8.0
e 2 35 22.0
e 2 266 48.0
e 2 308 64.0
e 2 153 7.0
e 3 116 9.0
e 3 119 7.0
e 3 150 1.0
e 3 130 9.0
e 4 122 8.0
e 4 230 11.0
e 4 46 6.0
e 4 236 2.0
e 5 21 1.0
e 5 257 1.0
e 6 18 17.0
e 7 194 26.0
e 7 198 77.0
e 7 121 73.0
e 7 13 8.0
e 7 246 23.0
e 7 285 92.0
e 7 37 11.0
e 7 108 27.0
e 7 258 44.0
e 7 256 56.0
e 7 182 75.0
e 7 70 38.0
e 7 115 47.0
e 7 38 86.0
e 7 43 78.0
e 7 193 4.0
e 7 314 55.0
e 7 254 43.0
e 7 199 98.0
e 7 271 73.0
e 7 83 33.0
e 7 174 82.0
e 7 128 87.0
e 7 64 30.0
e 7 228 48.0
e 7 175 41.0
e 7 67 15.0
e 8 47 10.0
e 8 66 4.0
e 9 264 4.0
e 9 3 9.0
e 9 47 7.0
e 9 150 4.0
e 10 3 7.0
e 10 293 8.0
e 11 255 45.0
e 12 172 3.0
e 14 68 83.0
e 14 265 2.0
e 14 160 61.0
e 14 270 96.0
e 14 202 86.0
e 14 212 86.0
e 14 154 50.0
e 14 225 18.0
e 14 64 90.0
e 14 23 77.0
e 14 82 38.0
e 14 179 23.0
e 14 170 37.0
e 14 6 35.0
e 14 297 45.0
e 14 275 50.0
e 14 84 89.0
e 14 318 46.0
e 14 26 84.0
e 14 316 66.0
e 14 291 59.0
e 14 294 66.0
e 14 301 61.0
e 14 88 42.0
e 14 24 90.0
e 14 69 42.0
e 14 37 75.0
e 15 83 85.0
e 15 299 65.0
e 15 257 44.0
e 15 26 24.0
e 15 47 16.0
e 15 126 61.0
e 15 318 76.0
e 15 255 99.0
e 15 76 58.0
e 15 259 38.0
e 15 171 92.0
e 15 251 59.0
e 15 302 59.0
e 15 311 85.0
e 15 275 37.0
e 15 179 41.0
e 15 140 32.0
e 15 78 60.0
e 15 1 40.0
e 15 301 33.0
e 15 116 71.0
e 15 86 92.0
e 15 185 51.0
e 15 233 7.0
e 15 69 57.0
e 15 57 91.0
e 15 162 53.0
e 16 288 1.0
e 17 56 1.0
e 17 172 2.0
e 18 246 7.0
e 18 136 29.0
e 18 122 43.0
e 18 78 58.0
e 18 45 49.0
e 18 223 68.0
e 18 309 45.0
e 18 137 2.0
e 18 210 61.0
e 18 131 70.0
e 18 149 36.0
e 18 228 4.0
e 18 300 19.0
e 18 254 36.0
e 18 62 87.0
e 18 250 100.0
e 18 47 64.0
e 18 237 57.0
e 18 259 63.0
e 18 209 5.0
e 18 233 65.0
e 18 98 13.0
e 18 199 27.0
e 18 57 62.0
e 18 215 23.0
e 18 58 72.0
e 19 242 1.0
e 19 188 3.0
e 20 18 82.0
e 20 311 4.0
e 22 137 4.0
e 23 31 67.0
e 24 302 28.0
e 24 29 79.0
e 24 171 78.0
e 24 225 57.0
e 24 125 69.0
e 24 284 63.0
e 24 27 88.0
e 24 173 91.0
e 24 208 87.0
e 24 126 20.0
e 24 74 62.0
e 24 264 75.0
e 24 206 11.0
e 24 20 98.0
e 24 243 11.0
e 24 37 67.0
e 24 44 77.0
e 24 127 75.0
e 24 265 87.0
e 24 118 50.0
e 24 15 42.0
e 24 306 73.0
e 24 312 65.0
e 24 121 14.0
e 24 177 23.0
e 24 178 69.0
e 25 13 1.0
e 28 68 5.0
e 29 316 8.0
e 29 94 49.0
e 29 237 15.0
e 29 30 60.0
e 29 281 62.0
e 29 20 1.0
e 29 222 5.0
e 29 101 84.0
e 29 152 37.0
e 29 201 90.0
e 29 153 62.0
e 29 10 49.0
e 29 102 40.0
e 29 206 52.0
e 29 86 70.0
e 29 65 34.0
e 29 275 43.0
e 29 190 90.0
e 29 215 46.0
e 29 58 60.0
e 29 177 9.0
e 29 40 25.0
e 29 249 39.0
e 29 180 94.0
e 29 250 20.0
e 29 125 47.0
e 30 275 2.0
e 30 306 4.0
e 30 253 1.0
e 31 215 2.0
e 31 157 99.0
e 31 218 72.0
e 31 24 8.0
e 31 237 52.0
e 31 256 40.0
e 31 97 98.0
e 31 50 71.0
e 31 178 53.0
e 31 90 47.0
e 31 275 12.0
e 31 196 36.0
e 31 163 96.0
e 31 226 57.0
e 31 231 91.0
e 31 296 10.0
e 31 255 4.0
e 31 15 95.0
e 31 91 55.0
e 31 247 81.0
e 31 293 98.0
e 31 232 85.0
e 31 307 32.0
e 31 239 74.0
e 31 199 23.0
e 32 277 1.0
e 32 164 1.0
e 33 144 1.0
e 33 232 3.0
e 34 176 1.0
e 35 269 1.0
e 36 113 20.0
e 36 267 9.0
e 36 171 20.0
e 36 178 7.0
e 36 228 9.0
e 36 16 11.0
e 36 148 17.0
e 37 256 8.0
e 38 28 97.0
e 38 30 43.0
e 38 120 81.0
e 38 171 9.0
e 38 133 91.0
e 38 56 33.0
e 38 209 4.0
e 38 205 57.0
e 38 91 21.0
e 38 29 54.0
e 38 227 35.0
e 38 78 58.0
e 38 286 69.0
e 38 210 91.0
e 38 31 37.0
e 38 241 96.0
e 38 155 80.0
e 38 267 29.0
e 38 270 96.0
e 38 32 5.0
e 38 216 98.0
e 38 117 87.0
e 38 49 91.0
e 38 218 34.0
e 38 80 53.0
e 38 245 61.0
e 40 171 1.0
e 41 242 2.0
e 42 213 1.0
e 43 184 39.0
e 43 56 39.0
e 43 232 21.0
e 43 202 90.0
e 43 38 10.0
e 43 255 21.0
e 43 44 7.0
e 43 115 33.0
e 43 200 75.0
e 43 132 62.0
e 43 272 64.0
e 43 157 85.0
e 43 48 19.0
e 43 92 39.0
e 43 318 74.0
e 43 251 95.0
e 43 315 25.0
e 43 158 12.0
e 43 284 18.0
e 43 83 64.0
e 43 60 20.0
e 43 265 92.0
e 43 254 42.0
e 43 107 75.0
e 43 118 51.0
e 43 227 91.0
e 44 185 11.0
e 44 15 95.0
e 44 268 25.0
e 44 41 19.0
e 44 313 13.0
e 45 130 82.0
e 45 306 45.0
e 45 30 71.0
e 45 217 15.0
e 45 236 82.0
e 45 232 33.0
e 45 81 41.0
e 45 197 98.0
e 45 57 68.0
e 45 249 78.0
e 45 69 66.0
e 45 166 78.0
e 45 248 62.0
e 45 148 61.0
e 45 37 34.0
e 45 140 52.0
e 45 103 12.0
e 45 70 25.0
e 45 92 14.0
e 45 107 14.0
e 45 295 63.0
e 45 68 91.0
e 45 16 26.0
e 45 207 64.0
e 45 271 8.0
e 45 12 42.0
e 48 288 2.0
e 49 171 1.0
e 51 312 1.0
e 52 133 1.0
e 53 51 3.0
e 53 60 23.0
e 53 188 4.0
e 53 15 48.0
e 54 159 5.0
e 55 211 3.0
e 55 75 1.0
e 57 87 36.0
e 57 315 22.0
e 57 193 39.0
e 57 1 93.0
e 57 74 93.0
e 57 64 24.0
e 57 80 70.0
e 57 173 5.0
e 57 233 71.0
e 57 179 69.0
e 57 217 22.0
e 57 2 82.0
e 57 303 11.0
e 57 132 13.0
e 57 5 8.0
e 57 70 39.0
e 57 92 35.0
e 57 16 1.0
e 57 17 57.0
e 57 145 40.0
e 57 288 9.0
e 57 60 16.0
e 57 148 40.0
e 57 67 92.0
e 59 262 55.0
e 59 216 34.0
e 59 18 65.0
e 59 248 28.0
e 59 137 73.0
e 59 271 98.0
e 59 308 90.0
e 59 274 54.0
e 59 233 76.0
e 59 161 98.0
e 59 295 82.0
e 59 17 76.0
e 59 287 14.0
e 59 289 54.0
e 59 65 13.0
e 59 138 8.0
e 59 57 62.0
e 59 301 13.0
e 59 53 92.0
e 59 228 46.0
e 59 224 74.0
e 59 190 75.0
e 59 42 78.0
e 59 175 74.0
e 59 237 39.0
e 59 69 71.0
e 60 272 8.0
e 60 296 3.0
e 60 79 24.0
e 60 176 16.0
e 61 178 1.0
e 62 19 5.0
e 63 22 2.0
e 63 274 4.0
e 67 171 20.0
e 67 310 20.0
e 67 292 18.0
e 67 258 27.0
e 67 303 72.0
e 67 280 91.0
e 67 197 78.0
e 67 45 73.0
e 67 237 96.0
e 67 241 85.0
e 67 291 54.0
e 67 175 34.0
e 67 58 5.0
e 67 218 65.0
e 67 77 21.0
e 67 235 65.0
e 67 37 2.0
e 67 99 7.0
e 67 29 42.0
e 67 133 92.0
e 67 163 53.0
e 67 9 55.0
e 67 31 38.0
e 67 10 31.0
e 67 93 19.0
e 68 226 1.0
e 70 15 97.0
e 70 222 46.0
e 70 65 72.0
e 70 215 44.0
e 70 290 79.0
e 70 113 12.0
e 70 216 39.0
e 70 131 29.0
e 70 183 38.0
e 70 87 28.0
e 70 264 44.0
e 70 242 39.0
e 70 226 14.0
e 70 120 23.0
e 70 21 61.0
e 70 22 41.0
e 70 225 7.0
e 70 17 94.0
e 70 162 62.0
e 70 150 19.0
e 70 124 34.0
e 70 115 24.0
e 70 60 76.0
e 70 301 16.0
e 71 249 10.0
e 71 104 3.0
e 71 174 7.0
e 71 156 6.0
e 72 91 2.0
e 73 0 4.0
e 76 71 3.0
e 77 246 1.0
e 77 145 5.0
e 77 253 1.0
e 80 100 31.0
e 80 21 60.0
e 80 93 99.0
e 80 170 71.0
e 80 284 42.0
e 80 262 53.0
e 80 129 10.0
e 80 220 57.0
e 80 66 47.0
e 80 156 1.0
e 80 81 75.0
e 80 96 37.0
e 80 263 24.0
e 80 190 39.0
e 80 4 25.0
e 80 178 43.0
e 80 177 74.0
e 80 258 51.0
e 80 225 68.0
e 80 264 56.0
e 80 266 98.0
e 80 157 52.0
e 80 237 76.0
e 80 259 22.0
e 80 189 70.0
e 81 214 13.0
e 81 25 39.0
e 81 127 72.0
e 81 53 74.0
e 81 64 34.0
e 81 207 36.0
e 81 20 93.0
e 81 152 54.0
e 81 58 4.0
e 81 50 41.0
e 81 261 40.0
e 81 165 21.0
e 81 82 69.0
e 81 289 83.0
e 81 7 51.0
e 81 136 14.0
e 81 299 87.0
e 81 105 30.0
e 81 166 99.0
e 81 222 49.0
e 81 277 97.0
e 81 27 43.0
e 81 97 55.0
e 81 119 32.0
e 83 172 68.0
e 83 101 88.0
e 83 228 42.0
e 83 50 11.0
e 83 157 35.0
e 83 74 98.0
e 83 173 51.0
e 83 287 3.0
e 83 130 86.0
e 83 44 20.0
e 83 274 96.0
e 83 114 41.0
e 83 73 94.0
e 83 307 94.0
e 83 191 53.0
e 83 167 48.0
e 83 119 92.0
e 83 100 60.0
e 83 301 27.0
e 83 36 91.0
e 83 141 60.0
e 83 205 98.0
e 83 12 56.0
e 83 300 92.0
e 84 166 60.0
e 84 139 6.0
e 84 61 13.0
e 84 49 33.0
e 84 248 84.0
e 84 137 4.0
e 84 113 97.0
e 84 304 65.0
e 84 264 32.0
e 84 276 70.0
e 84 220 28.0
e 84 146 17.0
e 84 252 41.0
e 84 226 4.0
e 84 212 53.0
e 84 2 72.0
e 84 222 65.0
e 84 180 90.0
e 84 284 54.0
e 84 296 76.0
e 84 293 37.0
e 84 0 96.0
e 84 85 40.0
e 84 204 42.0
e 84 86 92.0
e 84 87 32.0
e 86 89 1.0
e 87 233 3.0
e 87 105 8.0
e 87 309 21.0
e 87 177 13.0
e 88 43 62.0
e 88 183 3.0
e 88 35 26.0
e 88 276 92.0
e 88 292 22.0
e 88 266 17.0
e 88 269 5.0
e 88 1 85.0
e 88 207 39.0
e 88 128 78.0
e 88 56 91.0
e 88 187 89.0
e 88 7 12.0
e 88 108 93.0
e 88 163 40.0
e 88 233 41.0
e 88 234 45.0
e 88 129 65.0
e 88 33 72.0
e 88 77 99.0
e 88 21 72.0
e 88 125 67.0
e 88 13 23.0
e 88 188 1.0
e 88 63 79.0
e 88 312 8.0
e 89 272 54.0
e 90 242 1.0
e 93 199 3.0
e 93 48 7.0
e 95 39 1.0
e 99 113 23.0
e 99 293 6.0
e 99 123 21.0
e 99 168 20.0
e 99 26 7.0
e 100 199 5.0
e 100 81 82.0
e 104 82 16.0
e 104 231 9.0
e 104 56 18.0
e 104 3 12.0
e 104 299 16.0
e 104 138 19.0
e 105 278 22.0
e 105 31 2.0
e 105 270 23.0
e 105 35 17.0
e 105 164 60.0
e 105 260 81.0
e 105 172 6.0
e 105 42 23.0
e 105 112 94.0
e 105 197 37.0
e 105 34 2.0
e 105 14 85.0
e 105 237 2.0
e 105 134 53.0
e 105 261 33.0
e 105 271 30.0
e 105 69 78.0
e 105 124 41.0
e 105 162 37.0
e 105 127 69.0
e 105 10 81.0
e 105 288 55.0
e 105 250 73.0
e 105 145 27.0
e 105 295 12.0
e 106 157 1.0
e 107 63 25.0
e 107 140 49.0
e 107 254 13.0
e 107 74 82.0
e 107 205 72.0
e 107 238 98.0
e 107 21 49.0
e 107 230 96.0
e 107 252 30.0
e 107 229 30.0
e 107 132 71.0
e 107 183 20.0
e 107 231 90.0
e 107 17 28.0
e 107 18 99.0
e 107 39 30.0
e 107 307 26.0
e 107 86 10.0
e 107 37 65.0
e 107 199 54.0
e 107 261 31.0
e 107 49 78.0
e 107 273 30.0
e 107 66 52.0
e 107 308 87.0
e 109 214 1.0
e 110 262 1.0
e 110 145 2.0
e 111 151 7.0
e 114 174 2.0
e 119 37 20.0
e 119 110 1.0
e 119 240 12.0
e 119 216 16.0
e 122 135 5.0
e 122 76 5.0
e 126 265 1.0
e 126 314 10.0
e 133 231 3.0
e 134 113 10.0
e 134 100 11.0
e 134 280 3.0
e 136 167 41.0
e 136 229 93.0
e 136 21 82.0
e 136 133 27.0
e 136 183 54.0
e 136 309 40.0
e 136 156 79.0
e 136 140 49.0
e 136 226 76.0
e 136 50 35.0
e 136 142 3.0
e 136 235 6.0
e 136 266 58.0
e 136 261 37.0
e 136 294 60.0
e 136 119 82.0
e 136 10 76.0
e 136 52 88.0
e 136 89 78.0
e 136 54 25.0
e 136 67 34.0
e 136 147 71.0
e 136 157 17.0
e 136 14 2.0
e 136 274 12.0
e 139 161 1.0
e 143 192 2.0
e 143 126 8.0
e 146 155 1.0
e 146 170 11.0
e 146 211 7.0
e 147 165 4.0
e 150 294 9.0
e 151 149 1.0
e 151 255 85.0
e 151 21 6.0
e 152 74 46.0
e 152 64 39.0
e 152 301 32.0
e 152 271 33.0
e 152 151 36.0
e 152 269 31.0
e 152 302 53.0
e 152 113 22.0
e 152 170 7.0
e 152 102 13.0
e 152 272 24.0
e 152 9 33.0
e 165 141 3.0
e 165 108 3.0
e 169 283 66.0
e 179 56 8.0
e 181 63 3.0
e 181 223 24.0
e 185 54 2.0
e 185 81 39.0
e 185 220 18.0
e 185 61 82.0
e 185 131 60.0
e 185 299 86.0
e 185 40 23.0
e 185 282 26.0
e 185 221 51.0
e 185 42 79.0
e 185 31 34.0
e 185 152 37.0
e 185 293 20.0
e 185 10 49.0
e 185 270 95.0
e 185 318 73.0
e 185 194 35.0
e 185 88 73.0
e 185 258 6.0
e 185 211 39.0
e 185 202 94.0
e 185 252 43.0
e 185 51 73.0
e 185 247 59.0
e 185 199 66.0
e 186 213 13.0
e 186 161 4.0
e 186 174 23.0
e 186 289 18.0
e 186 11 10.0
e 186 236 2.0
e 186 4 7.0
e 188 50 7.0
e 191 156 91.0
e 191 201 98.0
e 191 251 16.0
e 191 50 42.0
e 191 94 27.0
e 191 178 17.0
e 191 299 5.0
e 191 113 66.0
e 191 31 42.0
e 191 80 12.0
e 191 36 50.0
e 191 70 14.0
e 191 261 70.0
e 191 195 63.0
e 191 200 57.0
e 191 220 23.0
e 191 213 85.0
e 191 155 65.0
e 191 67 38.0
e 191 9 54.0
e 191 28 97.0
e 191 296 38.0
e 191 245 36.0
e 191 54 83.0
e 191 65 94.0
e 191 45 4.0
e 196 125 70.0
e 196 22 1.0
e 196 267 27.0
e 196 235 68.0
e 196 136 45.0
e 196 66 45.0
e 196 83 80.0
e 196 38 55.0
e 196 239 99.0
e 196 74 27.0
e 196 100 67.0
e 196 309 39.0
e 196 2 89.0
e 196 8 52.0
e 196 254 35.0
e 196 132 75.0
e 196 181 8.0
e 196 151 57.0
e 196 164 7.0
e 196 58 20.0
e 196 225 51.0
e 196 278 82.0
e 196 159 22.0
e 196 32 6.0
e 196 116 27.0
e 196 7 8.0
e 200 66 10.0
e 200 172 6.0
e 202 289 3.0
e 203 104 62.0
e 203 75 74.0
e 203 73 48.0
e 203 91 68.0
e 203 265 65.0
e 203 40 10.0
e 203 103 60.0
e 203 283 40.0
e 203 313 71.0
e 203 8 22.0
e 203 255 67.0
e 203 142 78.0
e 203 267 40.0
e 203 47 67.0
e 203 22 5.0
e 203 294 39.0
e 203 204 52.0
e 203 220 90.0
e 203 235 82.0
e 203 100 60.0
e 203 184 43.0
e 203 280 58.0
e 203 117 84.0
e 203 310 24.0
e 203 166 50.0
e 203 270 47.0
e 203 292 30.0
e 204 277 10.0
e 204 16 23.0
e 204 85 1.0
e 204 115 20.0
e 204 25 20.0
e 206 23 8.0
e 206 229 41.0
e 208 183 50.0
e 208 55 14.0
e 208 286 84.0
e 208 167 57.0
e 208 238 64.0
e 208 70 9.0
e 208 315 19.0
e 208 285 55.0
e 208 172 77.0
e 208 112 77.0
e 208 297 44.0
e 208 78 56.0
e 208 142 22.0
e 208 154 3.0
e 208 251 92.0
e 208 74 85.0
e 208 299 53.0
e 208 133 37.0
e 208 66 79.0
e 208 158 56.0
e 208 201 28.0
e 208 4 6.0
e 208 168 94.0
e 208 45 39.0
e 208 313 15.0
e 208 236 46.0
e 218 219 6.0
e 220 278 24.0
e 220 109 93.0
e 220 217 67.0
e 220 282 60.0
e 220 228 25.0
e 220 72 13.0
e 220 231 84.0
e 220 144 76.0
e 220 127 49.0
e 220 302 7.0
e 220 206 80.0
e 220 274 8.0
e 220 141 74.0
e 220 98 11.0
e 220 304 90.0
e 220 143 25.0
e 220 189 69.0
e 220 110 59.0
e 220 22 97.0
e 220 61 98.0
e 220 239 52.0
e 220 303 40.0
e 221 55 25.0
e 221 153 20.0
e 221 91 19.0
e 221 298 12.0
e 221 168 19.0
e 221 24 16.0
e 223 72 18.0
e 223 50 8.0
e 223 206 10.0
e 223 284 8.0
e 223 207 20.0
e 227 288 5.0
e 227 92 19.0
e 227 48 1.0
e 227 121 14.0
e 227 96 8.0
e 229 23 1.0
e 229 220 51.0
e 229 44 7.0
e 229 256 19.0
e 229 111 18.0
e 229 123 5.0
e 229 315 44.0
e 229 208 39.0
e 229 71 11.0
e 229 52 41.0
e 229 287 23.0
e 238 75 95.0
e 238 205 69.0
e 238 40 84.0
e 238 143 55.0
e 238 120 93.0
e 238 81 73.0
e 238 130 52.0
e 238 244 18.0
e 238 131 96.0
e 238 172 89.0
e 238 52 77.0
e 238 278 89.0
e 238 160 53.0
e 238 235 63.0
e 238 101 8.0
e 238 294 44.0
e 238 274 40.0
e 238 192 13.0
e 238 132 53.0
e 238 203 61.0
e 238 156 80.0
e 238 99 19.0
e 238 114 87.0
e 238 123 57.0
e 238 206 52.0
e 240 318 3.0
e 243 183 20.0
e 243 181 8.0
e 243 310 23.0
e 243 245 9.0
e 243 149 21.0
e 243 227 19.0
e 244 48 18.0
e 244 302 61.0
e 244 306 2.0
e 244 36 90.0
e 244 157 81.0
e 244 175 74.0
e 244 232 91.0
e 244 84 11.0
e 244 301 3.0
e 244 245 72.0
e 244 83 5.0
e 244 56 72.0
e 244 294 74.0
e 244 138 33.0
e 244 207 95.0
e 244 94 76.0
e 244 22 10.0
e 244 158 55.0
e 244 208 45.0
e 244 40 23.0
e 244 112 4.0
e 244 200 15.0
e 244 296 13.0
e 244 274 87.0
e 244 34 96.0
e 244 88 64.0
e 247 156 5.0
e 250 255 14.0
e 250 138 47.0
e 250 185 45.0
e 250 151 58.0
e 250 114 68.0
e 250 47 71.0
e 250 226 82.0
e 250 298 8.0
e 250 176 19.0
e 250 111 16.0
e 250 53 41.0
e 250 55 50.0
e 250 95 78.0
e 250 110 43.0
e 250 116 96.0
e 250 254 7.0
e 250 141 20.0
e 250 35 10.0
e 250 19 43.0
e 250 204 77.0
e 250 295 20.0
e 250 229 29.0
e 250 222 8.0
e 250 1 89.0
e 252 273 8.0
e 255 112 64.0
e 255 256 4.0
e 255 270 3.0
e 255 65 62.0
e 255 313 2.0
e 255 220 38.0
e 255 125 5.0
e 255 118 33.0
e 255 108 13.0
e 255 147 70.0
e 255 221 86.0
e 255 73 28.0
e 255 63 66.0
e 255 23 77.0
e 255 24 100.0
e 255 28 27.0
e 255 247 18.0
e 255 140 5.0
e 255 244 65.0
e 255 55 25.0
e 257 239 5.0
e 257 124 1.0
e 259 143 2.0
e 260 317 5.0
e 260 262 11.0
e 260 23 1.0
e 264 60 56.0
e 264 141 49.0
e 264 222 83.0
e 264 187 77.0
e 264 94 23.0
e 264 241 58.0
e 264 109 21.0
e 264 112 1.0
e 264 93 10.0
e 264 15 42.0
e 264 117 96.0
e 264 148 27.0
e 264 228 81.0
e 264 29 56.0
e 264 147 52.0
e 264 223 100.0
e 264 23 25.0
e 264 308 97.0
e 264 158 73.0
e 264 114 44.0
e 264 95 15.0
e 264 42 45.0
e 268 277 2.0
e 268 144 11.0
e 268 304 8.0
e 272 45 25.0
e 272 173 16.0
e 272 8 82.0
e 272 169 23.0
e 272 233 19.0
e 272 18 25.0
e 272 246 5.0
e 272 139 82.0
e 272 189 94.0
e 272 293 33.0
e 272 76 25.0
e 272 305 54.0
e 272 194 52.0
e 272 127 12.0
e 272 24 4.0
e 272 32 54.0
e 272 247 62.0
e 272 150 51.0
e 272 92 64.0
e 272 101 53.0
e 272 310 67.0
e 272 158 3.0
e 272 28 79.0
e 279 60 6.0
e 279 272 77.0
e 279 84 34.0
e 279 131 6.0
e 281 116 2.0
e 283 39 63.0
e 283 94 70.0
e 283 184 5.0
e 283 218 79.0
e 283 234 6.0
e 283 79 52.0
e 283 77 34.0
e 283 299 85.0
e 283 304 78.0
e 283 81 30.0
e 283 90 51.0
e 283 86 23.0
e 283 255 53.0
e 283 138 100.0
e 283 201 78.0
e 283 10 99.0
e 283 76 29.0
e 283 58 53.0
e 283 56 93.0
e 283 64 99.0
e 283 152 9.0
e 283 119 78.0
e 283 164 8.0
e 283 273 51.0
e 284 33 65.0
e 284 51 11.0
e 284 181 92.0
e 284 69 54.0
e 284 143 26.0
e 284 85 53.0
e 284 184 44.0
e 284 20 44.0
e 284 182 26.0
e 284 257 55.0
e 284 54 37.0
e 284 16 68.0
e 284 201 10.0
e 284 296 64.0
e 284 135 18.0
e 284 253 25.0
e 284 111 63.0
e 284 17 26.0
e 284 131 6.0
e 284 255 43.0
e 284 149 99.0
e 291 40 10.0
e 291 235 11.0
e 298 1 1.0
e 298 238 28.0
e 299 91 20.0
e 299 270 31.0
e 299 269 79.0
e 299 209 71.0
e 299 268 30.0
e 299 77 30.0
e 299 175 74.0
e 299 89 37.0
e 299 236 62.0
e 299 265 62.0
e 299 121 34.0
e 299 80 71.0
e 299 53 97.0
e 299 291 74.0
e 299 143 59.0
e 299 242 28.0
e 299 70 49.0
e 299 98 52.0
e 299 54 6.0
e 299 256 1.0
e 302 175 76.0
e 302 66 15.0
e 302 109 90.0
e 302 52 44.0
e 302 37 28.0
e 302 17 65.0
e 302 86 57.0
e 302 170 22.0
e 302 164 55.0
e 302 146 21.0
e 302 316 25.0
e 302 95 32.0
e 302 231 92.0
e 302 33 96.0
e 302 8 49.0
e 302 25 46.0
e 302 228 70.0
e 302 257 48.0
e 302 94 9.0
e 302 245 12.0
e 302 91 65.0
e 302 275 75.0
e 303 255 69.0
e 307 136 60.0
e 315 298 56.0
e 315 240 62.0
e 315 247 75.0
e 315 187 62.0
e 315 80 13.0
e 315 212 71.0
e 315 106 30.0
e 315 242 44.0
e 315 150 13.0
e 315 195 2.0
e 315 61 45.0
e 315 174 35.0
e 315 252 8.0
e 315 141 34.0
e 315 202 36.0
e 315 151 1.0
e 315 167 52.0
e 315 256 86.0
e 315 136 63.0
e 315 205 64.0
e 315 268 28.0
e 315 107 6.0
e 315 4 53.0
e 319 130 4.0
